(set-logic QF_NRA)
(set-info :source |Benchmarks generated from hycomp (https://es-static.fbk.eu/tools/hycomp/). BMC instances of non-linear hybrid automata taken from: Alessandro Cimatti, Sergio Mover, Stefano Tonetta, A quantifier-free SMT encoding of non-linear hybrid automata, FMCAD 2012 and Alessandro Cimatti, Sergio Mover, Stefano Tonetta, Quantier-free encoding of invariants for Hybrid Systems, Formal Methods in System Design. This instance solves a BMC problem of depth 2 and uses the encoding obtained with quantifier elimination using qepcad encoding. Contacts: Sergio Mover (mover@fbk.eu), Stefano Tonetta (tonettas@fbk.eu), Alessandro Cimatti (cimatti@fbk.eu).|)
(set-info :smt-lib-version 2.0)
(set-info :category "industrial")
(set-info :status unsat)
;; MathSAT API call trace
;; generated on Mon Mar 19 10:36:40 2012
(declare-fun b.x__AT0 () Real)
(declare-fun b.speed_x__AT1 () Real)
(declare-fun b.time__AT1 () Real)
(declare-fun g__AT0 () Real)
(declare-fun b.y__AT0 () Real)
(declare-fun b.EVENT.0__AT1 () Bool)
(declare-fun b.speed_y__AT1 () Real)
(declare-fun b.delta__AT1 () Real)
(declare-fun b.counter.0__AT0 () Bool)
(declare-fun b.EVENT.1__AT1 () Bool)
(declare-fun b.delta__AT0 () Real)
(declare-fun b.counter.1__AT0 () Bool)
(declare-fun b.y__AT2 () Real)
(declare-fun b.EVENT.0__AT0 () Bool)
(declare-fun b.counter.0__AT2 () Bool)
(declare-fun b.x__AT1 () Real)
(declare-fun b.counter.1__AT2 () Bool)
(declare-fun b.counter.2__AT2 () Bool)
(declare-fun b.speed_y__AT0 () Real)
(declare-fun b.event_is_timed__AT0 () Bool)
(declare-fun b.speed_x__AT2 () Real)
(declare-fun b.speed_y__AT2 () Real)
(declare-fun b.counter.3__AT0 () Bool)
(declare-fun b.event_is_timed__AT2 () Bool)
(declare-fun speed_loss__AT0 () Real)
(declare-fun b.y__AT1 () Real)
(declare-fun b.EVENT.1__AT0 () Bool)
(declare-fun b.event_is_timed__AT1 () Bool)
(declare-fun b.counter.0__AT1 () Bool)
(declare-fun b.counter.3__AT2 () Bool)
(declare-fun b.speed_x__AT0 () Real)
(declare-fun b.time__AT2 () Real)
(declare-fun b.counter.1__AT1 () Bool)
(declare-fun b.time__AT0 () Real)
(declare-fun b.delta__AT2 () Real)
(declare-fun b.y__AT3 () Real)
(declare-fun b.counter.2__AT0 () Bool)
(declare-fun b.counter.2__AT1 () Bool)
(declare-fun b.x__AT2 () Real)
(declare-fun b.EVENT.0__AT2 () Bool)
(declare-fun b.counter.3__AT1 () Bool)
(declare-fun b.EVENT.1__AT2 () Bool)
(assert (let ((.def_500 (= b.y__AT2 b.y__AT3)))
(let ((.def_501 (not .def_500)))
(let ((.def_473 (* 2.0 b.delta__AT2)))
(let ((.def_474 (* b.speed_y__AT2 .def_473)))
(let ((.def_470 (* b.delta__AT2 b.delta__AT2)))
(let ((.def_471 (* g__AT0 .def_470)))
(let ((.def_472 (* (- 1.0) .def_471)))
(let ((.def_475 (+ .def_472 .def_474)))
(let ((.def_476 (* 2.0 b.y__AT2)))
(let ((.def_478 (+ .def_476 .def_475)))
(let ((.def_493 (<= .def_478 0.0 )))
(let ((.def_494 (not .def_493)))
(let ((.def_490 (* b.speed_y__AT2 b.speed_y__AT2)))
(let ((.def_489 (* g__AT0 .def_476)))
(let ((.def_491 (+ .def_489 .def_490)))
(let ((.def_492 (<= .def_491 0.0 )))
(let ((.def_495 (and .def_492 .def_494)))
(let ((.def_451 (not b.EVENT.0__AT2)))
(let ((.def_449 (not b.EVENT.1__AT2)))
(let ((.def_463 (and .def_449 .def_451)))
(let ((.def_496 (and .def_463 .def_495)))
(let ((.def_483 (* b.speed_y__AT2 b.delta__AT2)))
(let ((.def_484 (+ .def_476 .def_483)))
(let ((.def_485 (<= 0.0 .def_484)))
(let ((.def_468 (<= 0.0 b.speed_y__AT2)))
(let ((.def_482 (not .def_468)))
(let ((.def_486 (and .def_482 .def_485)))
(let ((.def_479 (<= 0.0 .def_478)))
(let ((.def_487 (and .def_479 .def_486)))
(let ((.def_454 (<= 0.0 b.y__AT2)))
(let ((.def_469 (and .def_454 .def_468)))
(let ((.def_480 (and .def_469 .def_479)))
(let ((.def_466 (<= 0.0 b.delta__AT2)))
(let ((.def_467 (not .def_466)))
(let ((.def_481 (or .def_467 .def_480)))
(let ((.def_488 (or .def_481 .def_487)))
(let ((.def_497 (or .def_488 .def_496)))
(let ((.def_498 (not .def_497)))
(let ((.def_502 (or .def_498 .def_501)))
(let ((.def_464 (not .def_463)))
(let ((.def_503 (or .def_464 .def_502)))
(let ((.def_166 (not b.counter.0__AT1)))
(let ((.def_458 (or b.counter.1__AT1 .def_166)))
(let ((.def_161 (not b.counter.2__AT1)))
(let ((.def_459 (or .def_161 .def_458)))
(let ((.def_460 (or b.counter.3__AT1 .def_459)))
(let ((.def_61 (<= speed_loss__AT0 (/ 1 2))))
(let ((.def_58 (<= (/ 1 10) speed_loss__AT0)))
(let ((.def_62 (and .def_58 .def_61)))
(let ((.def_53 (<= g__AT0 10.0 )))
(let ((.def_52 (<= 8.0 g__AT0)))
(let ((.def_54 (and .def_52 .def_53)))
(let ((.def_63 (and .def_54 .def_62)))
(let ((.def_455 (and .def_63 .def_454)))
(let ((.def_452 (or .def_449 .def_451)))
(let ((.def_348 (not b.counter.1__AT2)))
(let ((.def_4 (not b.counter.0__AT2)))
(let ((.def_442 (or .def_4 .def_348)))
(let ((.def_446 (or b.counter.3__AT2 .def_442)))
(let ((.def_443 (or b.counter.2__AT2 .def_442)))
(let ((.def_8 (not b.counter.2__AT2)))
(let ((.def_441 (or .def_4 .def_8)))
(let ((.def_444 (and .def_441 .def_443)))
(let ((.def_365 (not b.counter.3__AT2)))
(let ((.def_445 (or .def_365 .def_444)))
(let ((.def_447 (and .def_445 .def_446)))
(let ((.def_453 (and .def_447 .def_452)))
(let ((.def_456 (and .def_453 .def_455)))
(let ((.def_277 (<= 0.0 b.delta__AT1)))
(let ((.def_262 (not b.EVENT.0__AT1)))
(let ((.def_260 (not b.EVENT.1__AT1)))
(let ((.def_274 (and .def_260 .def_262)))
(let ((.def_275 (not .def_274)))
(let ((.def_437 (or .def_275 .def_277)))
(let ((.def_438 (or b.EVENT.1__AT1 .def_437)))
(let ((.def_387 (= b.counter.0__AT2 b.counter.0__AT1)))
(let ((.def_385 (= b.counter.1__AT2 b.counter.1__AT1)))
(let ((.def_383 (= b.counter.2__AT2 b.counter.2__AT1)))
(let ((.def_382 (= b.counter.3__AT2 b.counter.3__AT1)))
(let ((.def_384 (and .def_382 .def_383)))
(let ((.def_386 (and .def_384 .def_385)))
(let ((.def_388 (and .def_386 .def_387)))
(let ((.def_434 (or .def_275 .def_388)))
(let ((.def_435 (or b.EVENT.1__AT1 .def_434)))
(let ((.def_394 (= b.x__AT1 b.x__AT2)))
(let ((.def_311 (= b.y__AT1 b.y__AT2)))
(let ((.def_428 (and .def_311 .def_394)))
(let ((.def_326 (= b.speed_x__AT1 b.speed_x__AT2)))
(let ((.def_429 (and .def_326 .def_428)))
(let ((.def_381 (= b.speed_y__AT1 b.speed_y__AT2)))
(let ((.def_430 (and .def_381 .def_429)))
(let ((.def_425 (= b.delta__AT1 0.0 )))
(let ((.def_426 (and .def_274 .def_425)))
(let ((.def_427 (not .def_426)))
(let ((.def_431 (or .def_427 .def_430)))
(let ((.def_432 (or b.EVENT.1__AT1 .def_431)))
(let ((.def_405 (= b.time__AT1 b.time__AT2)))
(let ((.def_417 (and .def_394 .def_405)))
(let ((.def_418 (and .def_311 .def_417)))
(let ((.def_419 (and .def_326 .def_418)))
(let ((.def_420 (and .def_381 .def_419)))
(let ((.def_421 (and .def_388 .def_420)))
(let ((.def_422 (or .def_260 .def_421)))
(let ((.def_408 (* (- 1.0) b.time__AT2)))
(let ((.def_411 (+ b.delta__AT1 .def_408)))
(let ((.def_412 (+ b.time__AT1 .def_411)))
(let ((.def_413 (= .def_412 0.0 )))
(let ((.def_414 (or .def_275 .def_413)))
(let ((.def_415 (or b.EVENT.1__AT1 .def_414)))
(let ((.def_406 (or .def_274 .def_405)))
(let ((.def_407 (or b.EVENT.1__AT1 .def_406)))
(let ((.def_416 (and .def_407 .def_415)))
(let ((.def_423 (and .def_416 .def_422)))
(let ((.def_401 (= .def_275 b.event_is_timed__AT2)))
(let ((.def_399 (= b.event_is_timed__AT1 .def_274)))
(let ((.def_402 (and .def_399 .def_401)))
(let ((.def_389 (and .def_381 .def_388)))
(let ((.def_343 (= b.y__AT1 0.0 )))
(let ((.def_279 (<= 0.0 b.speed_y__AT1)))
(let ((.def_293 (not .def_279)))
(let ((.def_344 (and .def_293 .def_343)))
(let ((.def_390 (or .def_344 .def_389)))
(let ((.def_357 (or .def_4 b.counter.0__AT1)))
(let ((.def_356 (or b.counter.0__AT2 .def_166)))
(let ((.def_358 (and .def_356 .def_357)))
(let ((.def_359 (and .def_348 .def_358)))
(let ((.def_360 (or b.counter.1__AT1 .def_359)))
(let ((.def_154 (not b.counter.1__AT1)))
(let ((.def_355 (or b.counter.1__AT2 .def_154)))
(let ((.def_361 (and .def_355 .def_360)))
(let ((.def_373 (and .def_8 .def_361)))
(let ((.def_374 (or b.counter.2__AT1 .def_373)))
(let ((.def_368 (and .def_166 .def_348)))
(let ((.def_369 (or b.counter.1__AT1 .def_368)))
(let ((.def_370 (and .def_355 .def_369)))
(let ((.def_371 (and b.counter.2__AT2 .def_370)))
(let ((.def_372 (or .def_161 .def_371)))
(let ((.def_375 (and .def_372 .def_374)))
(let ((.def_376 (and b.counter.3__AT2 .def_375)))
(let ((.def_377 (or b.counter.3__AT1 .def_376)))
(let ((.def_362 (and b.counter.2__AT2 .def_361)))
(let ((.def_363 (or b.counter.2__AT1 .def_362)))
(let ((.def_351 (or b.counter.1__AT2 b.counter.1__AT1)))
(let ((.def_349 (and b.counter.0__AT2 .def_348)))
(let ((.def_350 (or .def_154 .def_349)))
(let ((.def_352 (and .def_350 .def_351)))
(let ((.def_353 (and .def_8 .def_352)))
(let ((.def_354 (or .def_161 .def_353)))
(let ((.def_364 (and .def_354 .def_363)))
(let ((.def_366 (and .def_364 .def_365)))
(let ((.def_176 (not b.counter.3__AT1)))
(let ((.def_367 (or .def_176 .def_366)))
(let ((.def_378 (and .def_367 .def_377)))
(let ((.def_149 (* (- 1.0) speed_loss__AT0)))
(let ((.def_150 (+ 1.0 .def_149)))
(let ((.def_139 (* (- 1.0) b.speed_y__AT1)))
(let ((.def_346 (* .def_139 .def_150)))
(let ((.def_347 (= b.speed_y__AT2 .def_346)))
(let ((.def_379 (and .def_347 .def_378)))
(let ((.def_345 (not .def_344)))
(let ((.def_380 (or .def_345 .def_379)))
(let ((.def_391 (and .def_380 .def_390)))
(let ((.def_392 (and .def_311 .def_391)))
(let ((.def_393 (and .def_326 .def_392)))
(let ((.def_395 (and .def_393 .def_394)))
(let ((.def_396 (or .def_274 .def_395)))
(let ((.def_397 (or b.EVENT.1__AT1 .def_396)))
(let ((.def_337 (* (- 1.0) b.speed_y__AT2)))
(let ((.def_112 (* (- 1.0) g__AT0)))
(let ((.def_335 (* .def_112 b.delta__AT1)))
(let ((.def_338 (+ .def_335 .def_337)))
(let ((.def_339 (+ b.speed_y__AT1 .def_338)))
(let ((.def_340 (= .def_339 0.0 )))
(let ((.def_330 (* (- 1.0) b.x__AT2)))
(let ((.def_328 (* b.speed_x__AT1 b.delta__AT1)))
(let ((.def_331 (+ .def_328 .def_330)))
(let ((.def_332 (+ b.x__AT1 .def_331)))
(let ((.def_333 (= .def_332 0.0 )))
(let ((.def_281 (* b.delta__AT1 b.delta__AT1)))
(let ((.def_113 (* (/ 1 2) .def_112)))
(let ((.def_316 (* .def_113 .def_281)))
(let ((.def_318 (* (- 1.0) b.y__AT2)))
(let ((.def_321 (+ .def_318 .def_316)))
(let ((.def_294 (* b.speed_y__AT1 b.delta__AT1)))
(let ((.def_322 (+ .def_294 .def_321)))
(let ((.def_323 (+ b.y__AT1 .def_322)))
(let ((.def_324 (= .def_323 0.0 )))
(let ((.def_327 (and .def_324 .def_326)))
(let ((.def_334 (and .def_327 .def_333)))
(let ((.def_341 (and .def_334 .def_340)))
(let ((.def_342 (or .def_275 .def_341)))
(let ((.def_398 (and .def_342 .def_397)))
(let ((.def_403 (and .def_398 .def_402)))
(let ((.def_424 (and .def_403 .def_423)))
(let ((.def_433 (and .def_424 .def_432)))
(let ((.def_436 (and .def_433 .def_435)))
(let ((.def_439 (and .def_436 .def_438)))
(let ((.def_440 (and .def_260 .def_439)))
(let ((.def_457 (and .def_440 .def_456)))
(let ((.def_461 (and .def_457 .def_460)))
(let ((.def_312 (not .def_311)))
(let ((.def_284 (* 2.0 b.delta__AT1)))
(let ((.def_285 (* b.speed_y__AT1 .def_284)))
(let ((.def_282 (* g__AT0 .def_281)))
(let ((.def_283 (* (- 1.0) .def_282)))
(let ((.def_286 (+ .def_283 .def_285)))
(let ((.def_287 (* 2.0 b.y__AT1)))
(let ((.def_289 (+ .def_287 .def_286)))
(let ((.def_304 (<= .def_289 0.0 )))
(let ((.def_305 (not .def_304)))
(let ((.def_301 (* b.speed_y__AT1 b.speed_y__AT1)))
(let ((.def_300 (* g__AT0 .def_287)))
(let ((.def_302 (+ .def_300 .def_301)))
(let ((.def_303 (<= .def_302 0.0 )))
(let ((.def_306 (and .def_303 .def_305)))
(let ((.def_307 (and .def_274 .def_306)))
(let ((.def_295 (+ .def_287 .def_294)))
(let ((.def_296 (<= 0.0 .def_295)))
(let ((.def_297 (and .def_293 .def_296)))
(let ((.def_290 (<= 0.0 .def_289)))
(let ((.def_298 (and .def_290 .def_297)))
(let ((.def_265 (<= 0.0 b.y__AT1)))
(let ((.def_280 (and .def_265 .def_279)))
(let ((.def_291 (and .def_280 .def_290)))
(let ((.def_278 (not .def_277)))
(let ((.def_292 (or .def_278 .def_291)))
(let ((.def_299 (or .def_292 .def_298)))
(let ((.def_308 (or .def_299 .def_307)))
(let ((.def_309 (not .def_308)))
(let ((.def_313 (or .def_309 .def_312)))
(let ((.def_314 (or .def_275 .def_313)))
(let ((.def_28 (not b.counter.0__AT0)))
(let ((.def_269 (or b.counter.1__AT0 .def_28)))
(let ((.def_31 (not b.counter.2__AT0)))
(let ((.def_270 (or .def_31 .def_269)))
(let ((.def_271 (or b.counter.3__AT0 .def_270)))
(let ((.def_266 (and .def_63 .def_265)))
(let ((.def_263 (or .def_260 .def_262)))
(let ((.def_253 (or .def_154 .def_166)))
(let ((.def_257 (or b.counter.3__AT1 .def_253)))
(let ((.def_254 (or b.counter.2__AT1 .def_253)))
(let ((.def_252 (or .def_161 .def_166)))
(let ((.def_255 (and .def_252 .def_254)))
(let ((.def_256 (or .def_176 .def_255)))
(let ((.def_258 (and .def_256 .def_257)))
(let ((.def_264 (and .def_258 .def_263)))
(let ((.def_267 (and .def_264 .def_266)))
(let ((.def_72 (<= 0.0 b.delta__AT0)))
(let ((.def_47 (not b.EVENT.0__AT0)))
(let ((.def_45 (not b.EVENT.1__AT0)))
(let ((.def_69 (and .def_45 .def_47)))
(let ((.def_70 (not .def_69)))
(let ((.def_248 (or .def_70 .def_72)))
(let ((.def_249 (or b.EVENT.1__AT0 .def_248)))
(let ((.def_198 (= b.counter.0__AT0 b.counter.0__AT1)))
(let ((.def_196 (= b.counter.1__AT0 b.counter.1__AT1)))
(let ((.def_194 (= b.counter.2__AT0 b.counter.2__AT1)))
(let ((.def_193 (= b.counter.3__AT0 b.counter.3__AT1)))
(let ((.def_195 (and .def_193 .def_194)))
(let ((.def_197 (and .def_195 .def_196)))
(let ((.def_199 (and .def_197 .def_198)))
(let ((.def_245 (or .def_70 .def_199)))
(let ((.def_246 (or b.EVENT.1__AT0 .def_245)))
(let ((.def_205 (= b.x__AT1 b.x__AT0)))
(let ((.def_107 (= b.y__AT0 b.y__AT1)))
(let ((.def_239 (and .def_107 .def_205)))
(let ((.def_125 (= b.speed_x__AT0 b.speed_x__AT1)))
(let ((.def_240 (and .def_125 .def_239)))
(let ((.def_192 (= b.speed_y__AT0 b.speed_y__AT1)))
(let ((.def_241 (and .def_192 .def_240)))
(let ((.def_236 (= b.delta__AT0 0.0 )))
(let ((.def_237 (and .def_69 .def_236)))
(let ((.def_238 (not .def_237)))
(let ((.def_242 (or .def_238 .def_241)))
(let ((.def_243 (or b.EVENT.1__AT0 .def_242)))
(let ((.def_216 (= b.time__AT0 b.time__AT1)))
(let ((.def_228 (and .def_205 .def_216)))
(let ((.def_229 (and .def_107 .def_228)))
(let ((.def_230 (and .def_125 .def_229)))
(let ((.def_231 (and .def_192 .def_230)))
(let ((.def_232 (and .def_199 .def_231)))
(let ((.def_233 (or .def_45 .def_232)))
(let ((.def_219 (* (- 1.0) b.time__AT1)))
(let ((.def_222 (+ b.delta__AT0 .def_219)))
(let ((.def_223 (+ b.time__AT0 .def_222)))
(let ((.def_224 (= .def_223 0.0 )))
(let ((.def_225 (or .def_70 .def_224)))
(let ((.def_226 (or b.EVENT.1__AT0 .def_225)))
(let ((.def_217 (or .def_69 .def_216)))
(let ((.def_218 (or b.EVENT.1__AT0 .def_217)))
(let ((.def_227 (and .def_218 .def_226)))
(let ((.def_234 (and .def_227 .def_233)))
(let ((.def_212 (= .def_70 b.event_is_timed__AT1)))
(let ((.def_210 (= b.event_is_timed__AT0 .def_69)))
(let ((.def_213 (and .def_210 .def_212)))
(let ((.def_200 (and .def_192 .def_199)))
(let ((.def_145 (= b.y__AT0 0.0 )))
(let ((.def_74 (<= 0.0 b.speed_y__AT0)))
(let ((.def_89 (not .def_74)))
(let ((.def_146 (and .def_89 .def_145)))
(let ((.def_201 (or .def_146 .def_200)))
(let ((.def_167 (or b.counter.0__AT0 .def_166)))
(let ((.def_165 (or .def_28 b.counter.0__AT1)))
(let ((.def_168 (and .def_165 .def_167)))
(let ((.def_169 (and .def_154 .def_168)))
(let ((.def_170 (or b.counter.1__AT0 .def_169)))
(let ((.def_26 (not b.counter.1__AT0)))
(let ((.def_164 (or .def_26 b.counter.1__AT1)))
(let ((.def_171 (and .def_164 .def_170)))
(let ((.def_184 (and .def_161 .def_171)))
(let ((.def_185 (or b.counter.2__AT0 .def_184)))
(let ((.def_179 (and .def_28 .def_154)))
(let ((.def_180 (or b.counter.1__AT0 .def_179)))
(let ((.def_181 (and .def_164 .def_180)))
(let ((.def_182 (and b.counter.2__AT1 .def_181)))
(let ((.def_183 (or .def_31 .def_182)))
(let ((.def_186 (and .def_183 .def_185)))
(let ((.def_187 (and b.counter.3__AT1 .def_186)))
(let ((.def_188 (or b.counter.3__AT0 .def_187)))
(let ((.def_172 (and b.counter.2__AT1 .def_171)))
(let ((.def_173 (or b.counter.2__AT0 .def_172)))
(let ((.def_158 (or b.counter.1__AT0 b.counter.1__AT1)))
(let ((.def_156 (and .def_154 b.counter.0__AT1)))
(let ((.def_157 (or .def_26 .def_156)))
(let ((.def_159 (and .def_157 .def_158)))
(let ((.def_162 (and .def_159 .def_161)))
(let ((.def_163 (or .def_31 .def_162)))
(let ((.def_174 (and .def_163 .def_173)))
(let ((.def_177 (and .def_174 .def_176)))
(let ((.def_34 (not b.counter.3__AT0)))
(let ((.def_178 (or .def_34 .def_177)))
(let ((.def_189 (and .def_178 .def_188)))
(let ((.def_148 (* (- 1.0) b.speed_y__AT0)))
(let ((.def_151 (* .def_148 .def_150)))
(let ((.def_152 (= b.speed_y__AT1 .def_151)))
(let ((.def_190 (and .def_152 .def_189)))
(let ((.def_147 (not .def_146)))
(let ((.def_191 (or .def_147 .def_190)))
(let ((.def_202 (and .def_191 .def_201)))
(let ((.def_203 (and .def_107 .def_202)))
(let ((.def_204 (and .def_125 .def_203)))
(let ((.def_206 (and .def_204 .def_205)))
(let ((.def_207 (or .def_69 .def_206)))
(let ((.def_208 (or b.EVENT.1__AT0 .def_207)))
(let ((.def_137 (* b.delta__AT0 .def_112)))
(let ((.def_140 (+ .def_137 .def_139)))
(let ((.def_141 (+ b.speed_y__AT0 .def_140)))
(let ((.def_142 (= .def_141 0.0 )))
(let ((.def_129 (* (- 1.0) b.x__AT1)))
(let ((.def_133 (+ .def_129 b.x__AT0)))
(let ((.def_127 (* b.delta__AT0 b.speed_x__AT0)))
(let ((.def_134 (+ .def_127 .def_133)))
(let ((.def_135 (= .def_134 0.0 )))
(let ((.def_76 (* b.delta__AT0 b.delta__AT0)))
(let ((.def_114 (* .def_76 .def_113)))
(let ((.def_116 (* (- 1.0) b.y__AT1)))
(let ((.def_119 (+ .def_116 .def_114)))
(let ((.def_90 (* b.speed_y__AT0 b.delta__AT0)))
(let ((.def_120 (+ .def_90 .def_119)))
(let ((.def_121 (+ b.y__AT0 .def_120)))
(let ((.def_122 (= .def_121 0.0 )))
(let ((.def_126 (and .def_122 .def_125)))
(let ((.def_136 (and .def_126 .def_135)))
(let ((.def_143 (and .def_136 .def_142)))
(let ((.def_144 (or .def_70 .def_143)))
(let ((.def_209 (and .def_144 .def_208)))
(let ((.def_214 (and .def_209 .def_213)))
(let ((.def_235 (and .def_214 .def_234)))
(let ((.def_244 (and .def_235 .def_243)))
(let ((.def_247 (and .def_244 .def_246)))
(let ((.def_250 (and .def_247 .def_249)))
(let ((.def_251 (and .def_45 .def_250)))
(let ((.def_268 (and .def_251 .def_267)))
(let ((.def_272 (and .def_268 .def_271)))
(let ((.def_108 (not .def_107)))
(let ((.def_80 (* 2.0 b.delta__AT0)))
(let ((.def_81 (* b.speed_y__AT0 .def_80)))
(let ((.def_77 (* g__AT0 .def_76)))
(let ((.def_79 (* (- 1.0) .def_77)))
(let ((.def_82 (+ .def_79 .def_81)))
(let ((.def_83 (* 2.0 b.y__AT0)))
(let ((.def_85 (+ .def_83 .def_82)))
(let ((.def_100 (<= .def_85 0.0 )))
(let ((.def_101 (not .def_100)))
(let ((.def_97 (* b.speed_y__AT0 b.speed_y__AT0)))
(let ((.def_96 (* g__AT0 .def_83)))
(let ((.def_98 (+ .def_96 .def_97)))
(let ((.def_99 (<= .def_98 0.0 )))
(let ((.def_102 (and .def_99 .def_101)))
(let ((.def_103 (and .def_69 .def_102)))
(let ((.def_91 (+ .def_83 .def_90)))
(let ((.def_92 (<= 0.0 .def_91)))
(let ((.def_93 (and .def_89 .def_92)))
(let ((.def_86 (<= 0.0 .def_85)))
(let ((.def_94 (and .def_86 .def_93)))
(let ((.def_64 (<= 0.0 b.y__AT0)))
(let ((.def_75 (and .def_64 .def_74)))
(let ((.def_87 (and .def_75 .def_86)))
(let ((.def_73 (not .def_72)))
(let ((.def_88 (or .def_73 .def_87)))
(let ((.def_95 (or .def_88 .def_94)))
(let ((.def_104 (or .def_95 .def_103)))
(let ((.def_105 (not .def_104)))
(let ((.def_109 (or .def_105 .def_108)))
(let ((.def_110 (or .def_70 .def_109)))
(let ((.def_65 (and .def_63 .def_64)))
(let ((.def_48 (or .def_45 .def_47)))
(let ((.def_38 (or .def_26 .def_28)))
(let ((.def_42 (or b.counter.3__AT0 .def_38)))
(let ((.def_39 (or b.counter.2__AT0 .def_38)))
(let ((.def_37 (or .def_28 .def_31)))
(let ((.def_40 (and .def_37 .def_39)))
(let ((.def_41 (or .def_34 .def_40)))
(let ((.def_43 (and .def_41 .def_42)))
(let ((.def_49 (and .def_43 .def_48)))
(let ((.def_66 (and .def_49 .def_65)))
(let ((.def_29 (and .def_26 .def_28)))
(let ((.def_32 (and .def_29 .def_31)))
(let ((.def_35 (and .def_32 .def_34)))
(let ((.def_23 (= b.speed_y__AT0 0.0 )))
(let ((.def_20 (= b.y__AT0 10.0 )))
(let ((.def_15 (= b.time__AT0 0.0 )))
(let ((.def_17 (and .def_15 b.event_is_timed__AT0)))
(let ((.def_21 (and .def_17 .def_20)))
(let ((.def_24 (and .def_21 .def_23)))
(let ((.def_36 (and .def_24 .def_35)))
(let ((.def_67 (and .def_36 .def_66)))
(let ((.def_6 (or .def_4 b.counter.1__AT2)))
(let ((.def_9 (or .def_6 .def_8)))
(let ((.def_11 (or .def_9 b.counter.3__AT2)))
(let ((.def_12 (not .def_11)))
(let ((.def_68 (and .def_12 .def_67)))
(let ((.def_111 (and .def_68 .def_110)))
(let ((.def_273 (and .def_111 .def_272)))
(let ((.def_315 (and .def_273 .def_314)))
(let ((.def_462 (and .def_315 .def_461)))
(let ((.def_504 (and .def_462 .def_503)))
.def_504))))))))))))))))))))))))))))))))))))))))))))))))))))))))))))))))))))))))))))))))))))))))))))))))))))))))))))))))))))))))))))))))))))))))))))))))))))))))))))))))))))))))))))))))))))))))))))))))))))))))))))))))))))))))))))))))))))))))))))))))))))))))))))))))))))))))))))))))))))))))))))))))))))))))))))))))))))))))))))))))))))))))))))))))))))))))))))))))))))))))))))))))))))))))))))))))))))))))))))))))))))))))))))))))))))))))))))))))))))))
(check-sat)
(exit)
